04/01/2017 03:43:12 PM /
Redis not found extension
24/02/2017 02:59:16 PM /
Redis not found extension
24/02/2017 03:10:20 PM /
Redis not found extension
29/03/2017 04:22:23 AM /
Redis not found extension
29/03/2017 04:23:39 AM /index.php
Redis not found extension
29/03/2017 04:29:49 AM /
Redis not found extension
29/03/2017 04:31:49 AM /
Redis not found extension
29/03/2017 04:38:06 AM /
Redis not found extension
29/03/2017 04:55:31 AM /
Redis not found extension
29/03/2017 04:55:51 AM /
Redis not found extension
29/03/2017 05:09:22 AM /
Redis not found extension
29/03/2017 05:11:27 AM /
Redis not found extension
29/03/2017 06:02:29 AM /
Redis not found extension
29/03/2017 06:09:03 AM /
Redis not found extension
29/03/2017 06:14:11 AM /
Redis not found extension
29/03/2017 06:16:54 AM /
Redis not found extension
29/03/2017 06:40:18 AM /
Redis not found extension
29/03/2017 06:47:52 AM /
Redis not found extension
29/03/2017 06:48:44 AM /
Redis not found extension
29/03/2017 07:04:05 AM /
Redis not found extension
29/03/2017 08:02:57 AM /
Redis not found extension
29/03/2017 08:34:56 AM /
Redis not found extension
31/03/2017 08:36:43 AM /
Redis not found extension
31/03/2017 08:36:55 AM /index.php
Redis not found extension
31/03/2017 08:48:02 AM /index.php
Redis not found extension
31/03/2017 08:51:50 AM /index.php
Redis not found extension
31/03/2017 09:21:23 AM /index.php
Redis not found extension
31/03/2017 09:26:07 AM /index.php
Redis not found extension
31/03/2017 10:18:31 AM /index.php
Redis not found extension
31/03/2017 10:19:43 AM /
Redis not found extension
31/03/2017 10:37:38 AM /
Redis not found extension
31/03/2017 11:51:40 AM /
Redis not found extension
31/03/2017 11:59:56 AM /
Redis not found extension
31/03/2017 12:01:15 PM /
Redis not found extension
31/03/2017 12:17:06 PM /
Redis not found extension
03/04/2017 03:40:16 AM /
Redis not found extension
03/04/2017 03:40:29 AM /index.php
Redis not found extension
03/04/2017 04:12:48 AM /index.php
Redis not found extension
03/04/2017 04:20:09 AM /index.php
Redis not found extension
03/04/2017 04:24:18 AM /index.php
Redis not found extension
03/04/2017 04:25:52 AM /index.php
Redis not found extension
03/04/2017 04:32:16 AM /index.php
Redis not found extension
03/04/2017 04:38:06 AM /index.php
Redis not found extension
03/04/2017 04:38:31 AM /index.php
Redis not found extension
03/04/2017 04:39:59 AM /index.php
Redis not found extension
03/04/2017 04:47:44 AM /index.php
Redis not found extension
03/04/2017 04:48:29 AM /index.php
Redis not found extension
03/04/2017 04:54:24 AM /index.php
Redis not found extension
03/04/2017 05:18:01 AM /index.php
Redis not found extension
03/04/2017 05:19:07 AM /index.php
Redis not found extension
03/04/2017 05:21:18 AM /index.php
Redis not found extension
03/04/2017 05:38:29 AM /
Redis not found extension
03/04/2017 05:50:44 AM /index.php
Redis not found extension
03/04/2017 06:05:00 AM /index.php
Redis not found extension
03/04/2017 06:18:45 AM /index.php
Redis not found extension
03/04/2017 08:05:04 AM /
Redis not found extension
03/04/2017 08:33:40 AM /
Redis not found extension
03/04/2017 08:37:36 AM /
Redis not found extension
03/04/2017 08:43:24 AM /
Redis not found extension
03/04/2017 08:53:51 AM /
Redis not found extension
03/04/2017 10:17:08 AM /
Redis not found extension
03/04/2017 10:52:40 AM /
Redis not found extension
04/04/2017 10:34:10 AM /
Redis not found extension
04/04/2017 10:34:23 AM /index.php
Redis not found extension
04/04/2017 11:20:10 AM /
Redis not found extension
04/04/2017 10:34:29 PM /
Redis not found extension
04/04/2017 10:34:41 PM /index.php
Redis not found extension
04/04/2017 10:34:43 PM /index.php
Redis not found extension
04/04/2017 10:34:45 PM /index.php
Redis not found extension
04/04/2017 11:26:27 PM /
Redis not found extension
04/04/2017 11:26:29 PM /
Redis not found extension
05/04/2017 03:28:35 AM /
Redis not found extension
05/04/2017 03:28:51 AM /index.php
Redis not found extension
05/04/2017 03:56:08 AM /index.php
Redis not found extension
17/05/2017 09:22:32 AM /admin/
Redis not found extension
17/05/2017 09:22:35 AM /admin/index.php
Redis not found extension
17/05/2017 10:02:27 AM /admin/
Redis not found extension
17/05/2017 10:02:49 AM /admin/
Redis not found extension
17/05/2017 10:03:22 AM /admin/
Redis not found extension
17/05/2017 10:05:18 AM /admin/
Redis not found extension
17/05/2017 10:07:05 AM /admin/
Redis not found extension
17/05/2017 10:08:02 AM /admin/
Redis not found extension
17/05/2017 10:40:02 AM /admin/
Redis not found extension
17/05/2017 02:38:38 PM /admin/
Redis not found extension
17/05/2017 02:38:40 PM /admin/index.php
Redis not found extension
17/05/2017 03:58:27 PM /admin/
Redis not found extension
17/05/2017 03:58:29 PM /admin/index.php
Redis not found extension
18/05/2017 09:31:45 AM /admin/
Redis not found extension
18/05/2017 09:31:46 AM /admin/index.php
Redis not found extension
18/05/2017 11:27:53 AM /admin/index.php
Redis not found extension
19/05/2017 09:29:00 AM /admin/
Redis not found extension
19/05/2017 09:29:02 AM /admin/index.php
Redis not found extension
19/05/2017 09:32:18 AM /admin/index.php
Redis not found extension
19/05/2017 09:37:16 AM /admin/index.php
Redis not found extension
19/05/2017 09:45:36 AM /admin/index.php
Redis not found extension
19/05/2017 10:58:03 AM /admin/index.php
Redis not found extension
19/05/2017 10:58:56 AM /admin/index.php
Redis not found extension
19/05/2017 11:41:02 AM /admin/
Redis not found extension
19/05/2017 01:13:54 PM /admin/
Redis not found extension
19/05/2017 01:13:56 PM /admin/index.php
Redis not found extension
19/05/2017 02:48:55 PM /admin/index.php
Redis not found extension
19/05/2017 03:04:05 PM /admin/
Redis not found extension
19/05/2017 03:04:07 PM /admin/index.php
Redis not found extension
19/05/2017 03:12:03 PM /admin/index.php
Redis not found extension
19/05/2017 03:13:00 PM /admin/index.php
Redis not found extension
19/05/2017 03:15:56 PM /admin/index.php
Redis not found extension
19/05/2017 03:16:30 PM /admin/index.php
Redis not found extension
19/05/2017 04:39:22 PM /admin/index.php
Redis not found extension
19/05/2017 04:39:23 PM /admin/index.php
Redis not found extension
20/05/2017 08:58:15 AM /admin/
Redis not found extension
20/05/2017 08:58:17 AM /admin/index.php
Redis not found extension
20/05/2017 09:25:10 AM /admin/index.php
Redis not found extension
20/05/2017 11:00:42 AM /admin/
Redis not found extension
20/05/2017 11:34:12 AM /admin/
Redis not found extension
22/05/2017 08:57:52 AM /admin/
Redis not found extension
22/05/2017 08:57:59 AM /admin/index.php
Redis not found extension
22/05/2017 10:06:53 AM /admin/index.php
Redis not found extension
22/05/2017 10:06:55 AM /admin/index.php
Redis not found extension
22/05/2017 01:53:55 PM /admin/index.php
Redis not found extension
22/05/2017 01:53:57 PM /admin/index.php
Redis not found extension
22/05/2017 02:58:46 PM /admin/
Redis not found extension
22/05/2017 02:58:49 PM /admin/index.php
Redis not found extension
22/05/2017 09:26:18 PM /admin/index.php
Redis not found extension
23/05/2017 08:58:31 AM /admin/
Redis not found extension
23/05/2017 08:58:34 AM /admin/index.php
Redis not found extension
23/05/2017 09:02:51 AM /admin/index.php
Redis not found extension
23/05/2017 10:48:33 AM /admin/index.php
Redis not found extension
23/05/2017 11:20:14 AM /admin/index.php
Redis not found extension
23/05/2017 01:44:00 PM /admin/
Redis not found extension
23/05/2017 01:44:25 PM /admin/index.php
Redis not found extension
23/05/2017 04:47:22 PM /admin/index.php
Redis not found extension
23/05/2017 04:47:23 PM /admin/index.php
Redis not found extension
23/05/2017 04:57:59 PM /admin/index.php
Redis not found extension
24/05/2017 09:35:15 AM /admin/
Redis not found extension
24/05/2017 09:35:17 AM /admin/index.php
Redis not found extension
24/05/2017 09:58:55 AM /admin/
Redis not found extension
24/05/2017 10:00:15 AM /admin/
Redis not found extension
24/05/2017 10:10:38 AM /admin/
Redis not found extension
24/05/2017 01:57:27 PM /admin/
Redis not found extension
24/05/2017 01:57:29 PM /admin/index.php
Redis not found extension
24/05/2017 04:31:05 PM /admin/
Redis not found extension
24/05/2017 04:31:06 PM /admin/index.php
Redis not found extension
25/05/2017 09:26:17 AM /admin/
Redis not found extension
25/05/2017 09:26:19 AM /admin/index.php
Redis not found extension
